SDVRP instances/custom_instances/p03_10_splitx10_0.vrp
NAME:p03_10_splitx10_
BEST_KNOWN: 0
COMMENT: 0
DIMENSION: 464
CAPACITY: 2000
EDGE_WEIGHT_FORMAT: FUNCTION
EDGE_WEIGHT_TYPE: EXACT_2D
NODE_COORD_SECTION
1 0.00000 0.00000
2 -30 -10
3 -30 -10
4 -30 -10
5 -30 -10
6 -30 -10
7 -30 -10
8 -30 -10
9 -6 -46
10 -6 -46
11 -6 -46
12 -6 -46
13 -6 -46
14 -6 -46
15 -32 -22
16 -32 -22
17 -32 -22
18 -32 -22
19 -32 -22
20 -32 -22
21 -32 -22
22 50 -39
23 50 -39
24 50 -39
25 50 -39
26 50 -39
27 50 -39
28 50 -39
29 7 -18
30 7 -18
31 7 -18
32 7 -18
33 -15 -5
34 -15 -5
35 -15 -5
36 27 -30
37 27 -30
38 27 -30
39 27 -30
40 27 -30
41 27 -30
42 27 -30
43 -6 -39
44 -6 -39
45 -6 -39
46 -6 -39
47 -6 -39
48 1 39
49 1 39
50 1 39
51 1 39
52 1 39
53 42 -47
54 42 -47
55 42 -47
56 42 -47
57 42 -47
58 -44 34
59 -44 34
60 -44 34
61 -44 34
62 -44 34
63 -44 34
64 30 -28
65 30 -28
66 30 -28
67 30 -28
68 30 -28
69 30 -28
70 45 -9
71 45 -9
72 45 -9
73 45 -9
74 45 -9
75 45 -9
76 -38 -25
77 -38 -25
78 -38 -25
79 -38 -25
80 13 -3
81 13 -3
82 -28 23
83 -28 23
84 -28 23
85 -28 23
86 -28 23
87 -7 21
88 -7 21
89 -7 21
90 -7 21
91 -7 21
92 -25 10
93 -25 10
94 -25 10
95 -25 10
96 -25 10
97 -25 10
98 -42 -10
99 -42 -10
100 -42 -10
101 -42 -10
102 28 -18
103 28 -18
104 28 -18
105 28 -18
106 12 -44
107 12 -44
108 -41 6
109 -41 6
110 -41 6
111 -41 6
112 -2 45
113 -2 45
114 -2 45
115 13 44
116 13 44
117 13 44
118 13 44
119 13 44
120 13 44
121 -19 -18
122 -19 -18
123 -19 -18
124 -19 -18
125 -19 -18
126 -42 -42
127 -42 -42
128 -42 -42
129 -42 -42
130 -42 -42
131 26 6
132 26 6
133 26 6
134 -37 15
135 -37 15
136 42 21
137 42 21
138 42 21
139 -24 9
140 -24 9
141 21 -47
142 21 -47
143 19 -37
144 19 -37
145 19 -37
146 19 -37
147 19 -37
148 -19 -38
149 -19 -38
150 -19 -38
151 -19 -38
152 -19 -38
153 50 -41
154 50 -41
155 -13 10
156 -13 10
157 -13 10
158 -22 -44
159 -22 -44
160 -22 -44
161 -22 -44
162 -22 -44
163 -42 19
164 -42 19
165 -42 19
166 -42 19
167 -11 -8
168 -11 -8
169 -11 -8
170 -11 -8
171 -11 -8
172 -11 -8
173 -11 -8
174 -31 45
175 -31 45
176 -31 45
177 -31 45
178 11 34
179 11 34
180 11 34
181 11 34
182 11 34
183 11 34
184 11 34
185 46 30
186 46 30
187 46 30
188 46 30
189 46 30
190 -35 -27
191 -35 -27
192 -35 -27
193 -35 -27
194 -35 -27
195 -35 -27
196 -35 -27
197 -48 3
198 -48 3
199 -48 3
200 43 -31
201 43 -31
202 43 -31
203 37 38
204 37 38
205 15 17
206 15 17
207 15 17
208 15 17
209 15 17
210 -36 24
211 -36 24
212 -14 -22
213 -14 -22
214 -14 -22
215 -14 -22
216 -14 -22
217 -14 -22
218 23 -9
219 23 -9
220 23 -9
221 23 -9
222 23 -9
223 23 -9
224 -34 46
225 -34 46
226 -34 46
227 -34 46
228 27 35
229 27 35
230 27 35
231 38 -6
232 38 -6
233 38 -6
234 38 -6
235 -23 -48
236 -23 -48
237 32 45
238 32 45
239 32 45
240 7 43
241 7 43
242 7 43
243 12 -6
244 12 -6
245 12 -6
246 17 8
247 17 8
248 17 8
249 17 8
250 17 8
251 -47 8
252 -47 8
253 -47 8
254 -47 8
255 -36 -48
256 -36 -48
257 -36 -48
258 -36 -48
259 37 49
260 37 49
261 37 49
262 37 49
263 25 -42
264 25 -42
265 -46 6
266 -46 6
267 -46 6
268 -46 6
269 -46 6
270 -46 6
271 36 34
272 36 34
273 36 34
274 36 34
275 36 34
276 27 -7
277 27 -7
278 27 -7
279 -39 -5
280 -39 -5
281 -39 -5
282 -39 -5
283 -39 -5
284 -39 -5
285 -39 -5
286 35 8
287 35 8
288 35 8
289 35 8
290 35 8
291 35 8
292 14 34
293 14 34
294 14 34
295 1 25
296 1 25
297 1 25
298 1 25
299 1 25
300 1 25
301 -38 -5
302 -38 -5
303 -38 -5
304 -38 -5
305 -38 -5
306 -4 38
307 -4 38
308 -4 38
309 -4 38
310 -4 38
311 -1 -10
312 -1 -10
313 -1 -10
314 -1 -10
315 -1 -10
316 -1 -10
317 -1 -10
318 11 43
319 11 43
320 11 43
321 11 43
322 37 -48
323 37 -48
324 37 -48
325 37 -48
326 12 -47
327 12 -47
328 12 -47
329 -35 18
330 -35 18
331 -35 18
332 -35 18
333 46 -40
334 46 -40
335 46 -40
336 46 -40
337 46 -40
338 46 -40
339 26 -18
340 26 -18
341 26 -18
342 26 -18
343 49 13
344 49 13
345 49 13
346 49 13
347 49 13
348 -37 -36
349 -37 -36
350 -37 -36
351 -37 -36
352 -37 -36
353 -37 -36
354 -37 -36
355 39 -50
356 39 -50
357 39 -50
358 39 -50
359 39 -50
360 39 -50
361 39 -50
362 5 -20
363 5 -20
364 5 -20
365 5 -20
366 48 50
367 48 50
368 48 50
369 48 50
370 48 50
371 0 21
372 0 21
373 0 21
374 0 21
375 0 21
376 0 21
377 30 8
378 30 8
379 30 8
380 30 8
381 30 8
382 30 8
383 -34 -11
384 -34 -11
385 -34 -11
386 -34 -11
387 -34 -11
388 -34 -11
389 -34 -11
390 -34 -11
391 12 36
392 12 36
393 12 36
394 12 36
395 12 36
396 12 36
397 12 36
398 12 36
399 -14 19
400 -14 19
401 -14 19
402 -14 19
403 -14 19
404 -14 19
405 4 42
406 4 42
407 4 42
408 -41 -29
409 -41 -29
410 -41 -29
411 -41 -29
412 -41 -29
413 -41 -29
414 -11 34
415 -11 34
416 -11 34
417 -11 34
418 -11 34
419 -44 -11
420 -44 -11
421 -44 -11
422 -45 -31
423 -45 -31
424 -45 -31
425 -45 -31
426 -45 -31
427 -45 -31
428 49 12
429 49 12
430 49 12
431 -41 -11
432 -41 -11
433 -41 -11
434 19 23
435 19 23
436 19 23
437 19 23
438 19 23
439 19 23
440 19 23
441 -40 -46
442 -40 -46
443 -40 -46
444 32 -45
445 32 -45
446 32 -45
447 13 8
448 13 8
449 13 8
450 13 8
451 13 8
452 13 8
453 13 8
454 -5 44
455 -5 44
456 -5 44
457 -5 44
458 -20 -38
459 -20 -38
460 -20 -38
461 -20 -38
462 -20 -38
463 -20 -38
464 -20 -38
DEMAND_SECTION
1 0
2 400
3 200
4 100
5 20
6 20
7 20
8 20
9 200
10 100
11 20
12 20
13 20
14 20
15 400
16 200
17 100
18 20
19 20
20 20
21 10
22 400
23 100
24 20
25 20
26 20
27 20
28 10
29 400
30 100
31 20
32 20
33 400
34 200
35 20
36 400
37 400
38 20
39 20
40 20
41 20
42 10
43 400
44 20
45 20
46 20
47 20
48 400
49 20
50 20
51 20
52 10
53 400
54 400
55 20
56 20
57 20
58 400
59 20
60 20
61 20
62 20
63 10
64 400
65 400
66 100
67 20
68 20
69 10
70 400
71 400
72 100
73 20
74 20
75 10
76 400
77 200
78 20
79 10
80 400
81 20
82 400
83 200
84 20
85 20
86 20
87 200
88 100
89 20
90 20
91 20
92 400
93 200
94 20
95 20
96 20
97 20
98 400
99 200
100 100
101 10
102 400
103 400
104 20
105 20
106 400
107 400
108 400
109 400
110 100
111 10
112 400
113 400
114 200
115 400
116 200
117 20
118 20
119 20
120 10
121 200
122 100
123 20
124 20
125 10
126 400
127 20
128 20
129 20
130 10
131 400
132 20
133 10
134 400
135 200
136 400
137 100
138 10
139 200
140 100
141 400
142 200
143 400
144 20
145 20
146 20
147 20
148 400
149 20
150 20
151 20
152 10
153 400
154 400
155 400
156 400
157 100
158 400
159 20
160 20
161 20
162 10
163 400
164 200
165 20
166 10
167 400
168 200
169 100
170 20
171 20
172 20
173 10
174 200
175 100
176 20
177 20
178 400
179 400
180 100
181 20
182 20
183 20
184 20
185 400
186 400
187 100
188 20
189 10
190 400
191 200
192 20
193 20
194 20
195 20
196 10
197 400
198 100
199 20
200 400
201 100
202 10
203 400
204 400
205 200
206 20
207 20
208 20
209 10
210 400
211 200
212 400
213 20
214 20
215 20
216 20
217 10
218 400
219 400
220 20
221 20
222 20
223 20
224 400
225 200
226 20
227 20
228 200
229 100
230 10
231 200
232 20
233 20
234 10
235 400
236 100
237 400
238 100
239 20
240 400
241 400
242 200
243 400
244 400
245 20
246 400
247 200
248 100
249 20
250 10
251 400
252 200
253 20
254 20
255 400
256 100
257 20
258 20
259 400
260 400
261 100
262 20
263 400
264 20
265 400
266 200
267 20
268 20
269 20
270 10
271 200
272 100
273 20
274 20
275 10
276 200
277 100
278 20
279 400
280 400
281 20
282 20
283 20
284 20
285 10
286 200
287 100
288 20
289 20
290 20
291 10
292 400
293 100
294 10
295 400
296 200
297 100
298 20
299 20
300 20
301 400
302 200
303 100
304 20
305 20
306 400
307 200
308 100
309 20
310 20
311 200
312 100
313 20
314 20
315 20
316 20
317 10
318 200
319 100
320 20
321 10
322 400
323 100
324 20
325 10
326 400
327 20
328 10
329 200
330 100
331 20
332 20
333 200
334 100
335 20
336 20
337 20
338 20
339 400
340 400
341 20
342 20
343 400
344 200
345 20
346 20
347 20
348 400
349 200
350 100
351 20
352 20
353 20
354 20
355 200
356 100
357 20
358 20
359 20
360 20
361 10
362 400
363 200
364 20
365 10
366 400
367 400
368 100
369 20
370 10
371 400
372 200
373 100
374 20
375 20
376 20
377 400
378 200
379 100
380 20
381 20
382 20
383 400
384 400
385 100
386 20
387 20
388 20
389 20
390 10
391 400
392 400
393 100
394 20
395 20
396 20
397 20
398 10
399 400
400 200
401 100
402 20
403 20
404 10
405 400
406 400
407 20
408 400
409 400
410 100
411 20
412 20
413 10
414 400
415 200
416 20
417 20
418 10
419 400
420 20
421 20
422 200
423 100
424 20
425 20
426 20
427 20
428 200
429 100
430 10
431 400
432 100
433 20
434 400
435 200
436 100
437 20
438 20
439 20
440 10
441 400
442 100
443 10
444 400
445 20
446 20
447 400
448 200
449 20
450 20
451 20
452 20
453 10
454 400
455 400
456 20
457 10
458 400
459 400
460 20
461 20
462 20
463 20
464 10
DEPOT_SECTION
1
-1
EOF