SDVRP instances/custom_instances/p03_10_splitx10_0.sol
463 -3 386 387 388 384 385 432 431 430 420 418 419 97 98 99 100 -16 76 408 407 409 410 349 347 353 352 348 351 350 -20 17 78 77 412 411 421 424 425 422 423 426 129 127 125 126 128 440 442 441 256 254 257 255 -32 33 139 93 95 94 91 155 154 -34 2 4 5 7 1 6 389 383 382 166 171 172 -41 40 38 39 37 36 35 64 68 65 67 63 66 -80 79 246 245 248 249 434 433 435 208 205 204 -87 88 86 306 305 414 417 415 416 413 398 401 -89 90 404 406 320 319 317 318 115 114 117 118 116 119 291 292 293 -92 96 330 328 331 329 133 134 108 107 -109 110 252 253 250 251 269 268 267 265 266 264 197 196 198 -122 120 462 460 457 458 463 461 150 147 151 149 148 215 212 211 -124 123 121 189 193 190 194 192 191 195 75 18 14 19 15 168 169 -130 378 376 377 380 218 220 222 221 217 219 -132 131 290 285 289 287 288 286 137 136 135 184 185 188 186 187 247 449 451 -138 165 164 162 163 210 209 84 82 83 399 402 400 403 -143 146 140 141 321 443 445 444 262 263 -145 144 142 327 326 325 105 106 311 310 316 315 -156 81 85 58 62 60 57 59 61 225 223 226 224 176 174 175 173 -167 170 304 301 300 302 303 283 282 279 278 280 281 284 -183 179 182 177 178 180 181 392 390 394 396 397 393 391 395 -199 201 200 53 54 56 55 52 354 355 359 358 357 356 360 324 322 323 -207 206 438 437 436 439 259 258 261 260 369 368 367 365 366 450 448 -213 216 214 459 159 161 158 157 160 235 234 10 8 12 13 11 9 44 42 46 43 45 313 314 312 -228 227 229 238 237 236 203 202 272 274 271 270 273 -232 71 73 72 74 69 70 429 427 428 346 343 342 345 344 379 381 -233 230 231 25 24 22 23 26 27 21 153 152 333 336 337 332 334 335 -241 239 240 405 51 47 49 50 48 372 373 -244 243 242 31 30 28 29 362 361 363 364 -277 275 276 101 103 102 104 340 341 339 338 -309 308 307 456 455 454 453 113 112 111 375 -370 371 374 298 294 295 297 299 296 452 446 447 0 





OBJ=
3145.181
BEST_KNOWN=
0.000